c File: flat50_3_0.col
c
c SOURCE: Joseph Culberson (joe@cs.ualberta.ca)
c DESCRIPTION: Quasi-random coloring problem
c              generated with flatness = 0
c                             probability = 0.139
c                             known coloring = 3
c                             random seed = 1998
c              Creation Date:  Tue Jun  9 12:23:09 1998
c Maximum degree = 8 Minimum degree = 1
c p edge 50 115
c cnf created by edge2cnf
p cnf 150 545
-1 -2 0
-1 -3 0
-2 -3 0
1 2 3 0
-4 -5 0
-4 -6 0
-5 -6 0
4 5 6 0
-7 -8 0
-7 -9 0
-8 -9 0
7 8 9 0
-10 -11 0
-10 -12 0
-11 -12 0
10 11 12 0
-13 -14 0
-13 -15 0
-14 -15 0
13 14 15 0
-16 -17 0
-16 -18 0
-17 -18 0
16 17 18 0
-19 -20 0
-19 -21 0
-20 -21 0
19 20 21 0
-22 -23 0
-22 -24 0
-23 -24 0
22 23 24 0
-25 -26 0
-25 -27 0
-26 -27 0
25 26 27 0
-28 -29 0
-28 -30 0
-29 -30 0
28 29 30 0
-31 -32 0
-31 -33 0
-32 -33 0
31 32 33 0
-34 -35 0
-34 -36 0
-35 -36 0
34 35 36 0
-37 -38 0
-37 -39 0
-38 -39 0
37 38 39 0
-40 -41 0
-40 -42 0
-41 -42 0
40 41 42 0
-43 -44 0
-43 -45 0
-44 -45 0
43 44 45 0
-46 -47 0
-46 -48 0
-47 -48 0
46 47 48 0
-49 -50 0
-49 -51 0
-50 -51 0
49 50 51 0
-52 -53 0
-52 -54 0
-53 -54 0
52 53 54 0
-55 -56 0
-55 -57 0
-56 -57 0
55 56 57 0
-58 -59 0
-58 -60 0
-59 -60 0
58 59 60 0
-61 -62 0
-61 -63 0
-62 -63 0
61 62 63 0
-64 -65 0
-64 -66 0
-65 -66 0
64 65 66 0
-67 -68 0
-67 -69 0
-68 -69 0
67 68 69 0
-70 -71 0
-70 -72 0
-71 -72 0
70 71 72 0
-73 -74 0
-73 -75 0
-74 -75 0
73 74 75 0
-76 -77 0
-76 -78 0
-77 -78 0
76 77 78 0
-79 -80 0
-79 -81 0
-80 -81 0
79 80 81 0
-82 -83 0
-82 -84 0
-83 -84 0
82 83 84 0
-85 -86 0
-85 -87 0
-86 -87 0
85 86 87 0
-88 -89 0
-88 -90 0
-89 -90 0
88 89 90 0
-91 -92 0
-91 -93 0
-92 -93 0
91 92 93 0
-94 -95 0
-94 -96 0
-95 -96 0
94 95 96 0
-97 -98 0
-97 -99 0
-98 -99 0
97 98 99 0
-100 -101 0
-100 -102 0
-101 -102 0
100 101 102 0
-103 -104 0
-103 -105 0
-104 -105 0
103 104 105 0
-106 -107 0
-106 -108 0
-107 -108 0
106 107 108 0
-109 -110 0
-109 -111 0
-110 -111 0
109 110 111 0
-112 -113 0
-112 -114 0
-113 -114 0
112 113 114 0
-115 -116 0
-115 -117 0
-116 -117 0
115 116 117 0
-118 -119 0
-118 -120 0
-119 -120 0
118 119 120 0
-121 -122 0
-121 -123 0
-122 -123 0
121 122 123 0
-124 -125 0
-124 -126 0
-125 -126 0
124 125 126 0
-127 -128 0
-127 -129 0
-128 -129 0
127 128 129 0
-130 -131 0
-130 -132 0
-131 -132 0
130 131 132 0
-133 -134 0
-133 -135 0
-134 -135 0
133 134 135 0
-136 -137 0
-136 -138 0
-137 -138 0
136 137 138 0
-139 -140 0
-139 -141 0
-140 -141 0
139 140 141 0
-142 -143 0
-142 -144 0
-143 -144 0
142 143 144 0
-145 -146 0
-145 -147 0
-146 -147 0
145 146 147 0
-148 -149 0
-148 -150 0
-149 -150 0
148 149 150 0
-52 -1 0
-53 -2 0
-54 -3 0
-76 -1 0
-77 -2 0
-78 -3 0
-97 -1 0
-98 -2 0
-99 -3 0
-100 -1 0
-101 -2 0
-102 -3 0
-121 -1 0
-122 -2 0
-123 -3 0
-145 -1 0
-146 -2 0
-147 -3 0
-148 -1 0
-149 -2 0
-150 -3 0
-79 -4 0
-80 -5 0
-81 -6 0
-112 -4 0
-113 -5 0
-114 -6 0
-133 -4 0
-134 -5 0
-135 -6 0
-148 -4 0
-149 -5 0
-150 -6 0
-52 -7 0
-53 -8 0
-54 -9 0
-64 -7 0
-65 -8 0
-66 -9 0
-67 -7 0
-68 -8 0
-69 -9 0
-73 -7 0
-74 -8 0
-75 -9 0
-142 -7 0
-143 -8 0
-144 -9 0
-52 -10 0
-53 -11 0
-54 -12 0
-148 -10 0
-149 -11 0
-150 -12 0
-70 -13 0
-71 -14 0
-72 -15 0
-76 -13 0
-77 -14 0
-78 -15 0
-100 -13 0
-101 -14 0
-102 -15 0
-109 -13 0
-110 -14 0
-111 -15 0
-55 -16 0
-56 -17 0
-57 -18 0
-73 -16 0
-74 -17 0
-75 -18 0
-91 -16 0
-92 -17 0
-93 -18 0
-109 -16 0
-110 -17 0
-111 -18 0
-115 -16 0
-116 -17 0
-117 -18 0
-136 -16 0
-137 -17 0
-138 -18 0
-139 -16 0
-140 -17 0
-141 -18 0
-52 -19 0
-53 -20 0
-54 -21 0
-64 -19 0
-65 -20 0
-66 -21 0
-70 -19 0
-71 -20 0
-72 -21 0
-55 -22 0
-56 -23 0
-57 -24 0
-97 -22 0
-98 -23 0
-99 -24 0
-115 -22 0
-116 -23 0
-117 -24 0
-118 -22 0
-119 -23 0
-120 -24 0
-121 -22 0
-122 -23 0
-123 -24 0
-139 -22 0
-140 -23 0
-141 -24 0
-64 -25 0
-65 -26 0
-66 -27 0
-88 -25 0
-89 -26 0
-90 -27 0
-112 -25 0
-113 -26 0
-114 -27 0
-139 -25 0
-140 -26 0
-141 -27 0
-145 -25 0
-146 -26 0
-147 -27 0
-55 -28 0
-56 -29 0
-57 -30 0
-64 -28 0
-65 -29 0
-66 -30 0
-73 -28 0
-74 -29 0
-75 -30 0
-76 -28 0
-77 -29 0
-78 -30 0
-115 -28 0
-116 -29 0
-117 -30 0
-124 -28 0
-125 -29 0
-126 -30 0
-97 -31 0
-98 -32 0
-99 -33 0
-109 -31 0
-110 -32 0
-111 -33 0
-112 -31 0
-113 -32 0
-114 -33 0
-121 -31 0
-122 -32 0
-123 -33 0
-97 -34 0
-98 -35 0
-99 -36 0
-100 -34 0
-101 -35 0
-102 -36 0
-106 -34 0
-107 -35 0
-108 -36 0
-118 -34 0
-119 -35 0
-120 -36 0
-124 -34 0
-125 -35 0
-126 -36 0
-85 -37 0
-86 -38 0
-87 -39 0
-112 -37 0
-113 -38 0
-114 -39 0
-124 -37 0
-125 -38 0
-126 -39 0
-136 -37 0
-137 -38 0
-138 -39 0
-70 -40 0
-71 -41 0
-72 -42 0
-73 -40 0
-74 -41 0
-75 -42 0
-76 -40 0
-77 -41 0
-78 -42 0
-109 -40 0
-110 -41 0
-111 -42 0
-136 -43 0
-137 -44 0
-138 -45 0
-82 -46 0
-83 -47 0
-84 -48 0
-85 -46 0
-86 -47 0
-87 -48 0
-88 -46 0
-89 -47 0
-90 -48 0
-91 -46 0
-92 -47 0
-93 -48 0
-118 -46 0
-119 -47 0
-120 -48 0
-136 -46 0
-137 -47 0
-138 -48 0
-82 -49 0
-83 -50 0
-84 -51 0
-100 -49 0
-101 -50 0
-102 -51 0
-127 -49 0
-128 -50 0
-129 -51 0
-145 -49 0
-146 -50 0
-147 -51 0
-148 -52 0
-149 -53 0
-150 -54 0
-124 -55 0
-125 -56 0
-126 -57 0
-136 -55 0
-137 -56 0
-138 -57 0
-139 -55 0
-140 -56 0
-141 -57 0
-142 -55 0
-143 -56 0
-144 -57 0
-106 -58 0
-107 -59 0
-108 -60 0
-127 -58 0
-128 -59 0
-129 -60 0
-133 -58 0
-134 -59 0
-135 -60 0
-127 -61 0
-128 -62 0
-129 -63 0
-130 -64 0
-131 -65 0
-132 -66 0
-145 -64 0
-146 -65 0
-147 -66 0
-148 -64 0
-149 -65 0
-150 -66 0
-103 -67 0
-104 -68 0
-105 -69 0
-112 -67 0
-113 -68 0
-114 -69 0
-130 -67 0
-131 -68 0
-132 -69 0
-118 -70 0
-119 -71 0
-120 -72 0
-142 -70 0
-143 -71 0
-144 -72 0
-121 -73 0
-122 -74 0
-123 -75 0
-142 -73 0
-143 -74 0
-144 -75 0
-121 -76 0
-122 -77 0
-123 -78 0
-127 -76 0
-128 -77 0
-129 -78 0
-145 -79 0
-146 -80 0
-147 -81 0
-106 -82 0
-107 -83 0
-108 -84 0
-130 -82 0
-131 -83 0
-132 -84 0
-136 -82 0
-137 -83 0
-138 -84 0
-106 -85 0
-107 -86 0
-108 -87 0
-109 -85 0
-110 -86 0
-111 -87 0
-133 -85 0
-134 -86 0
-135 -87 0
-133 -88 0
-134 -89 0
-135 -90 0
-121 -91 0
-122 -92 0
-123 -93 0
-112 -94 0
-113 -95 0
-114 -96 0
-121 -94 0
-122 -95 0
-123 -96 0
-127 -94 0
-128 -95 0
-129 -96 0
-136 -94 0
-137 -95 0
-138 -96 0
-148 -97 0
-149 -98 0
-150 -99 0
-136 -100 0
-137 -101 0
-138 -102 0
-145 -100 0
-146 -101 0
-147 -102 0
-148 -100 0
-149 -101 0
-150 -102 0
